c parity = 0 0 0 0 1 1 1 1 0 1 1 0 0 0 0 0 1 1 0 0 
c e = 0.25 
p cnf 738 2126
-21 61 0
-61 62 0
-22 -61 63 0
-63 64 0
-23 -63 65 0
-65 66 0
-24 -65 67 0
-67 68 0
-25 -67 69 0
-69 70 0
-26 -69 71 0
-71 72 0
-27 -71 73 0
-73 74 0
-28 -73 75 0
-75 76 0
-29 -75 77 0
-77 78 0
-30 -77 79 0
-79 80 0
-31 -79 0
-22 62 0
-62 81 0
-23 -62 64 0
-64 82 0
-24 -64 66 0
-66 83 0
-25 -66 68 0
-68 84 0
-26 -68 70 0
-70 85 0
-27 -70 72 0
-72 86 0
-28 -72 74 0
-74 87 0
-29 -74 76 0
-76 88 0
-30 -76 78 0
-78 89 0
-31 -78 80 0
-80 90 0
-32 -80 0
-23 81 0
-81 91 0
-24 -81 82 0
-82 92 0
-25 -82 83 0
-83 93 0
-26 -83 84 0
-84 94 0
-27 -84 85 0
-85 95 0
-28 -85 86 0
-86 96 0
-29 -86 87 0
-87 97 0
-30 -87 88 0
-88 98 0
-31 -88 89 0
-89 99 0
-32 -89 90 0
-90 100 0
-33 -90 0
-24 91 0
-91 101 0
-25 -91 92 0
-92 102 0
-26 -92 93 0
-93 103 0
-27 -93 94 0
-94 104 0
-28 -94 95 0
-95 105 0
-29 -95 96 0
-96 106 0
-30 -96 97 0
-97 107 0
-31 -97 98 0
-98 108 0
-32 -98 99 0
-99 109 0
-33 -99 100 0
-100 110 0
-34 -100 0
-25 101 0
-101 111 0
-26 -101 102 0
-102 112 0
-27 -102 103 0
-103 113 0
-28 -103 104 0
-104 114 0
-29 -104 105 0
-105 115 0
-30 -105 106 0
-106 116 0
-31 -106 107 0
-107 117 0
-32 -107 108 0
-108 118 0
-33 -108 109 0
-109 119 0
-34 -109 110 0
-110 120 0
-35 -110 0
-26 111 0
-111 121 0
-27 -111 112 0
-112 122 0
-28 -112 113 0
-113 123 0
-29 -113 114 0
-114 124 0
-30 -114 115 0
-115 125 0
-31 -115 116 0
-116 126 0
-32 -116 117 0
-117 127 0
-33 -117 118 0
-118 128 0
-34 -118 119 0
-119 129 0
-35 -119 120 0
-120 130 0
-36 -120 0
-27 121 0
-121 131 0
-28 -121 122 0
-122 132 0
-29 -122 123 0
-123 133 0
-30 -123 124 0
-124 134 0
-31 -124 125 0
-125 135 0
-32 -125 126 0
-126 136 0
-33 -126 127 0
-127 137 0
-34 -127 128 0
-128 138 0
-35 -128 129 0
-129 139 0
-36 -129 130 0
-130 140 0
-37 -130 0
-28 131 0
-131 141 0
-29 -131 132 0
-132 142 0
-30 -132 133 0
-133 143 0
-31 -133 134 0
-134 144 0
-32 -134 135 0
-135 145 0
-33 -135 136 0
-136 146 0
-34 -136 137 0
-137 147 0
-35 -137 138 0
-138 148 0
-36 -138 139 0
-139 149 0
-37 -139 140 0
-140 150 0
-38 -140 0
-29 141 0
-141 151 0
-30 -141 142 0
-142 152 0
-31 -142 143 0
-143 153 0
-32 -143 144 0
-144 154 0
-33 -144 145 0
-145 155 0
-34 -145 146 0
-146 156 0
-35 -146 147 0
-147 157 0
-36 -147 148 0
-148 158 0
-37 -148 149 0
-149 159 0
-38 -149 150 0
-150 160 0
-39 -150 0
-30 151 0
-151 161 0
-31 -151 152 0
-152 162 0
-32 -152 153 0
-153 163 0
-33 -153 154 0
-154 164 0
-34 -154 155 0
-155 165 0
-35 -155 156 0
-156 166 0
-36 -156 157 0
-157 167 0
-37 -157 158 0
-158 168 0
-38 -158 159 0
-159 169 0
-39 -159 160 0
-160 170 0
-40 -160 0
-31 161 0
-161 171 0
-32 -161 162 0
-162 172 0
-33 -162 163 0
-163 173 0
-34 -163 164 0
-164 174 0
-35 -164 165 0
-165 175 0
-36 -165 166 0
-166 176 0
-37 -166 167 0
-167 177 0
-38 -167 168 0
-168 178 0
-39 -168 169 0
-169 179 0
-40 -169 170 0
-170 180 0
-41 -170 0
-32 171 0
-171 181 0
-33 -171 172 0
-172 182 0
-34 -172 173 0
-173 183 0
-35 -173 174 0
-174 184 0
-36 -174 175 0
-175 185 0
-37 -175 176 0
-176 186 0
-38 -176 177 0
-177 187 0
-39 -177 178 0
-178 188 0
-40 -178 179 0
-179 189 0
-41 -179 180 0
-180 190 0
-42 -180 0
-33 181 0
-181 191 0
-34 -181 182 0
-182 192 0
-35 -182 183 0
-183 193 0
-36 -183 184 0
-184 194 0
-37 -184 185 0
-185 195 0
-38 -185 186 0
-186 196 0
-39 -186 187 0
-187 197 0
-40 -187 188 0
-188 198 0
-41 -188 189 0
-189 199 0
-42 -189 190 0
-190 200 0
-43 -190 0
-34 191 0
-191 201 0
-35 -191 192 0
-192 202 0
-36 -192 193 0
-193 203 0
-37 -193 194 0
-194 204 0
-38 -194 195 0
-195 205 0
-39 -195 196 0
-196 206 0
-40 -196 197 0
-197 207 0
-41 -197 198 0
-198 208 0
-42 -198 199 0
-199 209 0
-43 -199 200 0
-200 210 0
-44 -200 0
-35 201 0
-201 211 0
-36 -201 202 0
-202 212 0
-37 -202 203 0
-203 213 0
-38 -203 204 0
-204 214 0
-39 -204 205 0
-205 215 0
-40 -205 206 0
-206 216 0
-41 -206 207 0
-207 217 0
-42 -207 208 0
-208 218 0
-43 -208 209 0
-209 219 0
-44 -209 210 0
-210 220 0
-45 -210 0
-36 211 0
-211 221 0
-37 -211 212 0
-212 222 0
-38 -212 213 0
-213 223 0
-39 -213 214 0
-214 224 0
-40 -214 215 0
-215 225 0
-41 -215 216 0
-216 226 0
-42 -216 217 0
-217 227 0
-43 -217 218 0
-218 228 0
-44 -218 219 0
-219 229 0
-45 -219 220 0
-220 230 0
-46 -220 0
-37 221 0
-221 231 0
-38 -221 222 0
-222 232 0
-39 -222 223 0
-223 233 0
-40 -223 224 0
-224 234 0
-41 -224 225 0
-225 235 0
-42 -225 226 0
-226 236 0
-43 -226 227 0
-227 237 0
-44 -227 228 0
-228 238 0
-45 -228 229 0
-229 239 0
-46 -229 230 0
-230 240 0
-47 -230 0
-38 231 0
-231 241 0
-39 -231 232 0
-232 242 0
-40 -232 233 0
-233 243 0
-41 -233 234 0
-234 244 0
-42 -234 235 0
-235 245 0
-43 -235 236 0
-236 246 0
-44 -236 237 0
-237 247 0
-45 -237 238 0
-238 248 0
-46 -238 239 0
-239 249 0
-47 -239 240 0
-240 250 0
-48 -240 0
-39 241 0
-241 251 0
-40 -241 242 0
-242 252 0
-41 -242 243 0
-243 253 0
-42 -243 244 0
-244 254 0
-43 -244 245 0
-245 255 0
-44 -245 246 0
-246 256 0
-45 -246 247 0
-247 257 0
-46 -247 248 0
-248 258 0
-47 -248 249 0
-249 259 0
-48 -249 250 0
-250 260 0
-49 -250 0
-40 251 0
-251 261 0
-41 -251 252 0
-252 262 0
-42 -252 253 0
-253 263 0
-43 -253 254 0
-254 264 0
-44 -254 255 0
-255 265 0
-45 -255 256 0
-256 266 0
-46 -256 257 0
-257 267 0
-47 -257 258 0
-258 268 0
-48 -258 259 0
-259 269 0
-49 -259 260 0
-260 270 0
-50 -260 0
-41 261 0
-261 271 0
-42 -261 262 0
-262 272 0
-43 -262 263 0
-263 273 0
-44 -263 264 0
-264 274 0
-45 -264 265 0
-265 275 0
-46 -265 266 0
-266 276 0
-47 -266 267 0
-267 277 0
-48 -267 268 0
-268 278 0
-49 -268 269 0
-269 279 0
-50 -269 270 0
-270 280 0
-51 -270 0
-42 271 0
-271 281 0
-43 -271 272 0
-272 282 0
-44 -272 273 0
-273 283 0
-45 -273 274 0
-274 284 0
-46 -274 275 0
-275 285 0
-47 -275 276 0
-276 286 0
-48 -276 277 0
-277 287 0
-49 -277 278 0
-278 288 0
-50 -278 279 0
-279 289 0
-51 -279 280 0
-280 290 0
-52 -280 0
-43 281 0
-281 291 0
-44 -281 282 0
-282 292 0
-45 -282 283 0
-283 293 0
-46 -283 284 0
-284 294 0
-47 -284 285 0
-285 295 0
-48 -285 286 0
-286 296 0
-49 -286 287 0
-287 297 0
-50 -287 288 0
-288 298 0
-51 -288 289 0
-289 299 0
-52 -289 290 0
-290 300 0
-53 -290 0
-44 291 0
-291 301 0
-45 -291 292 0
-292 302 0
-46 -292 293 0
-293 303 0
-47 -293 294 0
-294 304 0
-48 -294 295 0
-295 305 0
-49 -295 296 0
-296 306 0
-50 -296 297 0
-297 307 0
-51 -297 298 0
-298 308 0
-52 -298 299 0
-299 309 0
-53 -299 300 0
-300 310 0
-54 -300 0
-45 301 0
-301 311 0
-46 -301 302 0
-302 312 0
-47 -302 303 0
-303 313 0
-48 -303 304 0
-304 314 0
-49 -304 305 0
-305 315 0
-50 -305 306 0
-306 316 0
-51 -306 307 0
-307 317 0
-52 -307 308 0
-308 318 0
-53 -308 309 0
-309 319 0
-54 -309 310 0
-310 320 0
-55 -310 0
-46 311 0
-311 321 0
-47 -311 312 0
-312 322 0
-48 -312 313 0
-313 323 0
-49 -313 314 0
-314 324 0
-50 -314 315 0
-315 325 0
-51 -315 316 0
-316 326 0
-52 -316 317 0
-317 327 0
-53 -317 318 0
-318 328 0
-54 -318 319 0
-319 329 0
-55 -319 320 0
-320 330 0
-56 -320 0
-47 321 0
-321 331 0
-48 -321 322 0
-322 332 0
-49 -322 323 0
-323 333 0
-50 -323 324 0
-324 334 0
-51 -324 325 0
-325 335 0
-52 -325 326 0
-326 336 0
-53 -326 327 0
-327 337 0
-54 -327 328 0
-328 338 0
-55 -328 329 0
-329 339 0
-56 -329 330 0
-330 340 0
-57 -330 0
-48 331 0
-331 341 0
-49 -331 332 0
-332 342 0
-50 -332 333 0
-333 343 0
-51 -333 334 0
-334 344 0
-52 -334 335 0
-335 345 0
-53 -335 336 0
-336 346 0
-54 -336 337 0
-337 347 0
-55 -337 338 0
-338 348 0
-56 -338 339 0
-339 349 0
-57 -339 340 0
-340 350 0
-58 -340 0
-49 341 0
-341 351 0
-50 -341 342 0
-342 352 0
-51 -342 343 0
-343 353 0
-52 -343 344 0
-344 354 0
-53 -344 345 0
-345 355 0
-54 -345 346 0
-346 356 0
-55 -346 347 0
-347 357 0
-56 -347 348 0
-348 358 0
-57 -348 349 0
-349 359 0
-58 -349 350 0
-350 360 0
-59 -350 0
-50 351 0
-51 -351 352 0
-52 -352 353 0
-53 -353 354 0
-54 -354 355 0
-55 -355 356 0
-56 -356 357 0
-57 -357 358 0
-58 -358 359 0
-59 -359 360 0
-60 -360 0
2 -5 362 0
-2 -5 -362 0
2 5 -362 0
-2 5 362 0
6 -7 363 0
-6 -7 -363 0
6 7 -363 0
-6 7 363 0
8 -9 364 0
-8 -9 -364 0
8 9 -364 0
-8 9 364 0
10 -13 365 0
-10 -13 -365 0
10 13 -365 0
-10 13 365 0
14 -16 366 0
-14 -16 -366 0
14 16 -366 0
-14 16 366 0
17 -21 367 0
-17 -21 -367 0
17 21 -367 0
-17 21 367 0
362 -363 368 0
-362 -363 -368 0
362 363 -368 0
-362 363 368 0
364 -365 369 0
-364 -365 -369 0
364 365 -369 0
-364 365 369 0
366 -367 370 0
-366 -367 -370 0
366 367 -370 0
-366 367 370 0
-368 -369 370 0
368 -369 -370 0
-368 369 -370 0
368 369 370 0
2 -5 372 0
-2 -5 -372 0
2 5 -372 0
-2 5 372 0
7 -10 373 0
-7 -10 -373 0
7 10 -373 0
-7 10 373 0
13 -16 374 0
-13 -16 -374 0
13 16 -374 0
-13 16 374 0
17 -18 375 0
-17 -18 -375 0
17 18 -375 0
-17 18 375 0
19 -22 376 0
-19 -22 -376 0
19 22 -376 0
-19 22 376 0
372 -373 377 0
-372 -373 -377 0
372 373 -377 0
-372 373 377 0
374 -375 378 0
-374 -375 -378 0
374 375 -378 0
-374 375 378 0
-376 -377 378 0
376 -377 -378 0
-376 377 -378 0
376 377 378 0
-2 -3 380 0
2 -3 -380 0
-2 3 -380 0
2 3 380 0
4 -5 381 0
-4 -5 -381 0
4 5 -381 0
-4 5 381 0
6 -8 382 0
-6 -8 -382 0
6 8 -382 0
-6 8 382 0
9 -10 383 0
-9 -10 -383 0
9 10 -383 0
-9 10 383 0
11 -14 384 0
-11 -14 -384 0
11 14 -384 0
-11 14 384 0
15 -20 385 0
-15 -20 -385 0
15 20 -385 0
-15 20 385 0
23 -380 386 0
-23 -380 -386 0
23 380 -386 0
-23 380 386 0
381 -382 387 0
-381 -382 -387 0
381 382 -387 0
-381 382 387 0
383 -384 388 0
-383 -384 -388 0
383 384 -388 0
-383 384 388 0
385 -386 389 0
-385 -386 -389 0
385 386 -389 0
-385 386 389 0
387 -388 390 0
-387 -388 -390 0
387 388 -390 0
-387 388 390 0
389 390 0
-389 -390 0
-1 -5 392 0
1 -5 -392 0
-1 5 -392 0
1 5 392 0
7 -8 393 0
-7 -8 -393 0
7 8 -393 0
-7 8 393 0
9 -11 394 0
-9 -11 -394 0
9 11 -394 0
-9 11 394 0
12 -14 395 0
-12 -14 -395 0
12 14 -395 0
-12 14 395 0
16 -19 396 0
-16 -19 -396 0
16 19 -396 0
-16 19 396 0
24 -392 397 0
-24 -392 -397 0
24 392 -397 0
-24 392 397 0
393 -394 398 0
-393 -394 -398 0
393 394 -398 0
-393 394 398 0
395 -396 399 0
-395 -396 -399 0
395 396 -399 0
-395 396 399 0
-397 -398 399 0
397 -398 -399 0
-397 398 -399 0
397 398 399 0
-1 -2 401 0
1 -2 -401 0
-1 2 -401 0
1 2 401 0
3 -4 402 0
-3 -4 -402 0
3 4 -402 0
-3 4 402 0
6 -13 403 0
-6 -13 -403 0
6 13 -403 0
-6 13 403 0
14 -15 404 0
-14 -15 -404 0
14 15 -404 0
-14 15 404 0
16 -18 405 0
-16 -18 -405 0
16 18 -405 0
-16 18 405 0
20 -25 406 0
-20 -25 -406 0
20 25 -406 0
-20 25 406 0
401 -402 407 0
-401 -402 -407 0
401 402 -407 0
-401 402 407 0
403 -404 408 0
-403 -404 -408 0
403 404 -408 0
-403 404 408 0
405 -406 409 0
-405 -406 -409 0
405 406 -409 0
-405 406 409 0
-407 -408 409 0
407 -408 -409 0
-407 408 -409 0
407 408 409 0
2 -5 411 0
-2 -5 -411 0
2 5 -411 0
-2 5 411 0
7 -8 412 0
-7 -8 -412 0
7 8 -412 0
-7 8 412 0
9 -13 413 0
-9 -13 -413 0
9 13 -413 0
-9 13 413 0
17 -18 414 0
-17 -18 -414 0
17 18 -414 0
-17 18 414 0
19 -26 415 0
-19 -26 -415 0
19 26 -415 0
-19 26 415 0
411 -412 416 0
-411 -412 -416 0
411 412 -416 0
-411 412 416 0
413 -414 417 0
-413 -414 -417 0
413 414 -417 0
-413 414 417 0
-415 -416 417 0
415 -416 -417 0
-415 416 -417 0
415 416 417 0
-2 -4 419 0
2 -4 -419 0
-2 4 -419 0
2 4 419 0
6 -9 420 0
-6 -9 -420 0
6 9 -420 0
-6 9 420 0
10 -12 421 0
-10 -12 -421 0
10 12 -421 0
-10 12 421 0
13 -16 422 0
-13 -16 -422 0
13 16 -422 0
-13 16 422 0
17 -18 423 0
-17 -18 -423 0
17 18 -423 0
-17 18 423 0
20 -27 424 0
-20 -27 -424 0
20 27 -424 0
-20 27 424 0
419 -420 425 0
-419 -420 -425 0
419 420 -425 0
-419 420 425 0
421 -422 426 0
-421 -422 -426 0
421 422 -426 0
-421 422 426 0
423 -424 427 0
-423 -424 -427 0
423 424 -427 0
-423 424 427 0
-425 -426 427 0
425 -426 -427 0
-425 426 -427 0
425 426 427 0
3 -4 429 0
-3 -4 -429 0
3 4 -429 0
-3 4 429 0
6 -7 430 0
-6 -7 -430 0
6 7 -430 0
-6 7 430 0
10 -13 431 0
-10 -13 -431 0
10 13 -431 0
-10 13 431 0
15 -17 432 0
-15 -17 -432 0
15 17 -432 0
-15 17 432 0
18 -19 433 0
-18 -19 -433 0
18 19 -433 0
-18 19 433 0
20 -28 434 0
-20 -28 -434 0
20 28 -434 0
-20 28 434 0
429 -430 435 0
-429 -430 -435 0
429 430 -435 0
-429 430 435 0
431 -432 436 0
-431 -432 -436 0
431 432 -436 0
-431 432 436 0
433 -434 437 0
-433 -434 -437 0
433 434 -437 0
-433 434 437 0
-435 -436 437 0
435 -436 -437 0
-435 436 -437 0
435 436 437 0
2 -3 439 0
-2 -3 -439 0
2 3 -439 0
-2 3 439 0
6 -9 440 0
-6 -9 -440 0
6 9 -440 0
-6 9 440 0
11 -12 441 0
-11 -12 -441 0
11 12 -441 0
-11 12 441 0
13 -16 442 0
-13 -16 -442 0
13 16 -442 0
-13 16 442 0
17 -19 443 0
-17 -19 -443 0
17 19 -443 0
-17 19 443 0
29 -439 444 0
-29 -439 -444 0
29 439 -444 0
-29 439 444 0
440 -441 445 0
-440 -441 -445 0
440 441 -445 0
-440 441 445 0
442 -443 446 0
-442 -443 -446 0
442 443 -446 0
-442 443 446 0
-444 -445 446 0
444 -445 -446 0
-444 445 -446 0
444 445 446 0
2 -3 448 0
-2 -3 -448 0
2 3 -448 0
-2 3 448 0
4 -9 449 0
-4 -9 -449 0
4 9 -449 0
-4 9 449 0
10 -11 450 0
-10 -11 -450 0
10 11 -450 0
-10 11 450 0
13 -14 451 0
-13 -14 -451 0
13 14 -451 0
-13 14 451 0
16 -17 452 0
-16 -17 -452 0
16 17 -452 0
-16 17 452 0
18 -30 453 0
-18 -30 -453 0
18 30 -453 0
-18 30 453 0
448 -449 454 0
-448 -449 -454 0
448 449 -454 0
-448 449 454 0
450 -451 455 0
-450 -451 -455 0
450 451 -455 0
-450 451 455 0
452 -453 456 0
-452 -453 -456 0
452 453 -456 0
-452 453 456 0
-454 -455 456 0
454 -455 -456 0
-454 455 -456 0
454 455 456 0
2 -3 458 0
-2 -3 -458 0
2 3 -458 0
-2 3 458 0
6 -8 459 0
-6 -8 -459 0
6 8 -459 0
-6 8 459 0
9 -10 460 0
-9 -10 -460 0
9 10 -460 0
-9 10 460 0
12 -14 461 0
-12 -14 -461 0
12 14 -461 0
-12 14 461 0
15 -16 462 0
-15 -16 -462 0
15 16 -462 0
-15 16 462 0
19 -31 463 0
-19 -31 -463 0
19 31 -463 0
-19 31 463 0
458 -459 464 0
-458 -459 -464 0
458 459 -464 0
-458 459 464 0
460 -461 465 0
-460 -461 -465 0
460 461 -465 0
-460 461 465 0
462 -463 466 0
-462 -463 -466 0
462 463 -466 0
-462 463 466 0
-464 -465 466 0
464 -465 -466 0
-464 465 -466 0
464 465 466 0
1 -3 468 0
-1 -3 -468 0
1 3 -468 0
-1 3 468 0
4 -6 469 0
-4 -6 -469 0
4 6 -469 0
-4 6 469 0
7 -8 470 0
-7 -8 -470 0
7 8 -470 0
-7 8 470 0
9 -12 471 0
-9 -12 -471 0
9 12 -471 0
-9 12 471 0
13 -16 472 0
-13 -16 -472 0
13 16 -472 0
-13 16 472 0
32 -468 473 0
-32 -468 -473 0
32 468 -473 0
-32 468 473 0
469 -470 474 0
-469 -470 -474 0
469 470 -474 0
-469 470 474 0
471 -472 475 0
-471 -472 -475 0
471 472 -475 0
-471 472 475 0
-473 -474 475 0
473 -474 -475 0
-473 474 -475 0
473 474 475 0
1 -2 477 0
-1 -2 -477 0
1 2 -477 0
-1 2 477 0
3 -4 478 0
-3 -4 -478 0
3 4 -478 0
-3 4 478 0
5 -8 479 0
-5 -8 -479 0
5 8 -479 0
-5 8 479 0
10 -11 480 0
-10 -11 -480 0
10 11 -480 0
-10 11 480 0
12 -18 481 0
-12 -18 -481 0
12 18 -481 0
-12 18 481 0
33 -477 482 0
-33 -477 -482 0
33 477 -482 0
-33 477 482 0
478 -479 483 0
-478 -479 -483 0
478 479 -483 0
-478 479 483 0
480 -481 484 0
-480 -481 -484 0
480 481 -484 0
-480 481 484 0
-482 -483 484 0
482 -483 -484 0
-482 483 -484 0
482 483 484 0
-1 -2 486 0
1 -2 -486 0
-1 2 -486 0
1 2 486 0
3 -4 487 0
-3 -4 -487 0
3 4 -487 0
-3 4 487 0
10 -12 488 0
-10 -12 -488 0
10 12 -488 0
-10 12 488 0
13 -15 489 0
-13 -15 -489 0
13 15 -489 0
-13 15 489 0
16 -18 490 0
-16 -18 -490 0
16 18 -490 0
-16 18 490 0
20 -34 491 0
-20 -34 -491 0
20 34 -491 0
-20 34 491 0
486 -487 492 0
-486 -487 -492 0
486 487 -492 0
-486 487 492 0
488 -489 493 0
-488 -489 -493 0
488 489 -493 0
-488 489 493 0
490 -491 494 0
-490 -491 -494 0
490 491 -494 0
-490 491 494 0
-492 -493 494 0
492 -493 -494 0
-492 493 -494 0
492 493 494 0
-1 -2 496 0
1 -2 -496 0
-1 2 -496 0
1 2 496 0
4 -5 497 0
-4 -5 -497 0
4 5 -497 0
-4 5 497 0
14 -16 498 0
-14 -16 -498 0
14 16 -498 0
-14 16 498 0
17 -18 499 0
-17 -18 -499 0
17 18 -499 0
-17 18 499 0
20 -35 500 0
-20 -35 -500 0
20 35 -500 0
-20 35 500 0
496 -497 501 0
-496 -497 -501 0
496 497 -501 0
-496 497 501 0
498 -499 502 0
-498 -499 -502 0
498 499 -502 0
-498 499 502 0
-500 -501 502 0
500 -501 -502 0
-500 501 -502 0
500 501 502 0
1 -2 504 0
-1 -2 -504 0
1 2 -504 0
-1 2 504 0
3 -6 505 0
-3 -6 -505 0
3 6 -505 0
-3 6 505 0
8 -9 506 0
-8 -9 -506 0
8 9 -506 0
-8 9 506 0
10 -12 507 0
-10 -12 -507 0
10 12 -507 0
-10 12 507 0
14 -15 508 0
-14 -15 -508 0
14 15 -508 0
-14 15 508 0
19 -36 509 0
-19 -36 -509 0
19 36 -509 0
-19 36 509 0
504 -505 510 0
-504 -505 -510 0
504 505 -510 0
-504 505 510 0
506 -507 511 0
-506 -507 -511 0
506 507 -511 0
-506 507 511 0
508 -509 512 0
-508 -509 -512 0
508 509 -512 0
-508 509 512 0
-510 -511 512 0
510 -511 -512 0
-510 511 -512 0
510 511 512 0
-1 -3 514 0
1 -3 -514 0
-1 3 -514 0
1 3 514 0
6 -7 515 0
-6 -7 -515 0
6 7 -515 0
-6 7 515 0
9 -11 516 0
-9 -11 -516 0
9 11 -516 0
-9 11 516 0
12 -13 517 0
-12 -13 -517 0
12 13 -517 0
-12 13 517 0
15 -16 518 0
-15 -16 -518 0
15 16 -518 0
-15 16 518 0
37 -514 519 0
-37 -514 -519 0
37 514 -519 0
-37 514 519 0
515 -516 520 0
-515 -516 -520 0
515 516 -520 0
-515 516 520 0
517 -518 521 0
-517 -518 -521 0
517 518 -521 0
-517 518 521 0
-519 -520 521 0
519 -520 -521 0
-519 520 -521 0
519 520 521 0
1 -3 523 0
-1 -3 -523 0
1 3 -523 0
-1 3 523 0
4 -6 524 0
-4 -6 -524 0
4 6 -524 0
-4 6 524 0
8 -9 525 0
-8 -9 -525 0
8 9 -525 0
-8 9 525 0
10 -11 526 0
-10 -11 -526 0
10 11 -526 0
-10 11 526 0
17 -19 527 0
-17 -19 -527 0
17 19 -527 0
-17 19 527 0
38 -523 528 0
-38 -523 -528 0
38 523 -528 0
-38 523 528 0
524 -525 529 0
-524 -525 -529 0
524 525 -529 0
-524 525 529 0
526 -527 530 0
-526 -527 -530 0
526 527 -530 0
-526 527 530 0
-528 -529 530 0
528 -529 -530 0
-528 529 -530 0
528 529 530 0
-3 -5 532 0
3 -5 -532 0
-3 5 -532 0
3 5 532 0
10 -11 533 0
-10 -11 -533 0
10 11 -533 0
-10 11 533 0
12 -13 534 0
-12 -13 -534 0
12 13 -534 0
-12 13 534 0
14 -17 535 0
-14 -17 -535 0
14 17 -535 0
-14 17 535 0
19 -39 536 0
-19 -39 -536 0
19 39 -536 0
-19 39 536 0
532 -533 537 0
-532 -533 -537 0
532 533 -537 0
-532 533 537 0
534 -535 538 0
-534 -535 -538 0
534 535 -538 0
-534 535 538 0
-536 -537 538 0
536 -537 -538 0
-536 537 -538 0
536 537 538 0
-1 -3 540 0
1 -3 -540 0
-1 3 -540 0
1 3 540 0
4 -5 541 0
-4 -5 -541 0
4 5 -541 0
-4 5 541 0
9 -11 542 0
-9 -11 -542 0
9 11 -542 0
-9 11 542 0
12 -15 543 0
-12 -15 -543 0
12 15 -543 0
-12 15 543 0
17 -18 544 0
-17 -18 -544 0
17 18 -544 0
-17 18 544 0
19 -40 545 0
-19 -40 -545 0
19 40 -545 0
-19 40 545 0
540 -541 546 0
-540 -541 -546 0
540 541 -546 0
-540 541 546 0
542 -543 547 0
-542 -543 -547 0
542 543 -547 0
-542 543 547 0
544 -545 548 0
-544 -545 -548 0
544 545 -548 0
-544 545 548 0
-546 -547 548 0
546 -547 -548 0
-546 547 -548 0
546 547 548 0
-1 -2 550 0
1 -2 -550 0
-1 2 -550 0
1 2 550 0
5 -7 551 0
-5 -7 -551 0
5 7 -551 0
-5 7 551 0
10 -11 552 0
-10 -11 -552 0
10 11 -552 0
-10 11 552 0
12 -15 553 0
-12 -15 -553 0
12 15 -553 0
-12 15 553 0
18 -19 554 0
-18 -19 -554 0
18 19 -554 0
-18 19 554 0
20 -41 555 0
-20 -41 -555 0
20 41 -555 0
-20 41 555 0
550 -551 556 0
-550 -551 -556 0
550 551 -556 0
-550 551 556 0
552 -553 557 0
-552 -553 -557 0
552 553 -557 0
-552 553 557 0
554 -555 558 0
-554 -555 -558 0
554 555 -558 0
-554 555 558 0
-556 -557 558 0
556 -557 -558 0
-556 557 -558 0
556 557 558 0
-4 -6 560 0
4 -6 -560 0
-4 6 -560 0
4 6 560 0
7 -8 561 0
-7 -8 -561 0
7 8 -561 0
-7 8 561 0
11 -16 562 0
-11 -16 -562 0
11 16 -562 0
-11 16 562 0
18 -19 563 0
-18 -19 -563 0
18 19 -563 0
-18 19 563 0
20 -42 564 0
-20 -42 -564 0
20 42 -564 0
-20 42 564 0
560 -561 565 0
-560 -561 -565 0
560 561 -565 0
-560 561 565 0
562 -563 566 0
-562 -563 -566 0
562 563 -566 0
-562 563 566 0
-564 -565 566 0
564 -565 -566 0
-564 565 -566 0
564 565 566 0
-2 -3 568 0
2 -3 -568 0
-2 3 -568 0
2 3 568 0
5 -8 569 0
-5 -8 -569 0
5 8 -569 0
-5 8 569 0
13 -14 570 0
-13 -14 -570 0
13 14 -570 0
-13 14 570 0
15 -16 571 0
-15 -16 -571 0
15 16 -571 0
-15 16 571 0
19 -20 572 0
-19 -20 -572 0
19 20 -572 0
-19 20 572 0
43 -568 573 0
-43 -568 -573 0
43 568 -573 0
-43 568 573 0
569 -570 574 0
-569 -570 -574 0
569 570 -574 0
-569 570 574 0
571 -572 575 0
-571 -572 -575 0
571 572 -575 0
-571 572 575 0
-573 -574 575 0
573 -574 -575 0
-573 574 -575 0
573 574 575 0
-1 -2 577 0
1 -2 -577 0
-1 2 -577 0
1 2 577 0
5 -6 578 0
-5 -6 -578 0
5 6 -578 0
-5 6 578 0
8 -15 579 0
-8 -15 -579 0
8 15 -579 0
-8 15 579 0
16 -17 580 0
-16 -17 -580 0
16 17 -580 0
-16 17 580 0
20 -44 581 0
-20 -44 -581 0
20 44 -581 0
-20 44 581 0
577 -578 582 0
-577 -578 -582 0
577 578 -582 0
-577 578 582 0
579 -580 583 0
-579 -580 -583 0
579 580 -583 0
-579 580 583 0
-581 -582 583 0
581 -582 -583 0
-581 582 -583 0
581 582 583 0
1 -3 585 0
-1 -3 -585 0
1 3 -585 0
-1 3 585 0
4 -5 586 0
-4 -5 -586 0
4 5 -586 0
-4 5 586 0
6 -7 587 0
-6 -7 -587 0
6 7 -587 0
-6 7 587 0
11 -14 588 0
-11 -14 -588 0
11 14 -588 0
-11 14 588 0
15 -18 589 0
-15 -18 -589 0
15 18 -589 0
-15 18 589 0
19 -20 590 0
-19 -20 -590 0
19 20 -590 0
-19 20 590 0
45 -585 591 0
-45 -585 -591 0
45 585 -591 0
-45 585 591 0
586 -587 592 0
-586 -587 -592 0
586 587 -592 0
-586 587 592 0
588 -589 593 0
-588 -589 -593 0
588 589 -593 0
-588 589 593 0
590 -591 594 0
-590 -591 -594 0
590 591 -594 0
-590 591 594 0
592 -593 595 0
-592 -593 -595 0
592 593 -595 0
-592 593 595 0
594 595 0
-594 -595 0
-1 -2 597 0
1 -2 -597 0
-1 2 -597 0
1 2 597 0
4 -5 598 0
-4 -5 -598 0
4 5 -598 0
-4 5 598 0
7 -10 599 0
-7 -10 -599 0
7 10 -599 0
-7 10 599 0
11 -13 600 0
-11 -13 -600 0
11 13 -600 0
-11 13 600 0
17 -18 601 0
-17 -18 -601 0
17 18 -601 0
-17 18 601 0
20 -46 602 0
-20 -46 -602 0
20 46 -602 0
-20 46 602 0
597 -598 603 0
-597 -598 -603 0
597 598 -603 0
-597 598 603 0
599 -600 604 0
-599 -600 -604 0
599 600 -604 0
-599 600 604 0
601 -602 605 0
-601 -602 -605 0
601 602 -605 0
-601 602 605 0
-603 -604 605 0
603 -604 -605 0
-603 604 -605 0
603 604 605 0
-1 -2 607 0
1 -2 -607 0
-1 2 -607 0
1 2 607 0
3 -5 608 0
-3 -5 -608 0
3 5 -608 0
-3 5 608 0
8 -9 609 0
-8 -9 -609 0
8 9 -609 0
-8 9 609 0
13 -15 610 0
-13 -15 -610 0
13 15 -610 0
-13 15 610 0
16 -19 611 0
-16 -19 -611 0
16 19 -611 0
-16 19 611 0
47 -607 612 0
-47 -607 -612 0
47 607 -612 0
-47 607 612 0
608 -609 613 0
-608 -609 -613 0
608 609 -613 0
-608 609 613 0
610 -611 614 0
-610 -611 -614 0
610 611 -614 0
-610 611 614 0
-612 -613 614 0
612 -613 -614 0
-612 613 -614 0
612 613 614 0
1 -4 616 0
-1 -4 -616 0
1 4 -616 0
-1 4 616 0
5 -12 617 0
-5 -12 -617 0
5 12 -617 0
-5 12 617 0
13 -14 618 0
-13 -14 -618 0
13 14 -618 0
-13 14 618 0
16 -17 619 0
-16 -17 -619 0
16 17 -619 0
-16 17 619 0
18 -20 620 0
-18 -20 -620 0
18 20 -620 0
-18 20 620 0
48 -616 621 0
-48 -616 -621 0
48 616 -621 0
-48 616 621 0
617 -618 622 0
-617 -618 -622 0
617 618 -622 0
-617 618 622 0
619 -620 623 0
-619 -620 -623 0
619 620 -623 0
-619 620 623 0
-621 -622 623 0
621 -622 -623 0
-621 622 -623 0
621 622 623 0
2 -3 625 0
-2 -3 -625 0
2 3 -625 0
-2 3 625 0
4 -6 626 0
-4 -6 -626 0
4 6 -626 0
-4 6 626 0
7 -9 627 0
-7 -9 -627 0
7 9 -627 0
-7 9 627 0
11 -12 628 0
-11 -12 -628 0
11 12 -628 0
-11 12 628 0
15 -16 629 0
-15 -16 -629 0
15 16 -629 0
-15 16 629 0
20 -49 630 0
-20 -49 -630 0
20 49 -630 0
-20 49 630 0
625 -626 631 0
-625 -626 -631 0
625 626 -631 0
-625 626 631 0
627 -628 632 0
-627 -628 -632 0
627 628 -632 0
-627 628 632 0
629 -630 633 0
-629 -630 -633 0
629 630 -633 0
-629 630 633 0
-631 -632 633 0
631 -632 -633 0
-631 632 -633 0
631 632 633 0
1 -2 635 0
-1 -2 -635 0
1 2 -635 0
-1 2 635 0
3 -5 636 0
-3 -5 -636 0
3 5 -636 0
-3 5 636 0
6 -10 637 0
-6 -10 -637 0
6 10 -637 0
-6 10 637 0
12 -13 638 0
-12 -13 -638 0
12 13 -638 0
-12 13 638 0
16 -19 639 0
-16 -19 -639 0
16 19 -639 0
-16 19 639 0
20 -50 640 0
-20 -50 -640 0
20 50 -640 0
-20 50 640 0
635 -636 641 0
-635 -636 -641 0
635 636 -641 0
-635 636 641 0
637 -638 642 0
-637 -638 -642 0
637 638 -642 0
-637 638 642 0
639 -640 643 0
-639 -640 -643 0
639 640 -643 0
-639 640 643 0
-641 -642 643 0
641 -642 -643 0
-641 642 -643 0
641 642 643 0
-2 -3 645 0
2 -3 -645 0
-2 3 -645 0
2 3 645 0
5 -6 646 0
-5 -6 -646 0
5 6 -646 0
-5 6 646 0
7 -9 647 0
-7 -9 -647 0
7 9 -647 0
-7 9 647 0
10 -17 648 0
-10 -17 -648 0
10 17 -648 0
-10 17 648 0
18 -19 649 0
-18 -19 -649 0
18 19 -649 0
-18 19 649 0
51 -645 650 0
-51 -645 -650 0
51 645 -650 0
-51 645 650 0
646 -647 651 0
-646 -647 -651 0
646 647 -651 0
-646 647 651 0
648 -649 652 0
-648 -649 -652 0
648 649 -652 0
-648 649 652 0
-650 -651 652 0
650 -651 -652 0
-650 651 -652 0
650 651 652 0
2 -3 654 0
-2 -3 -654 0
2 3 -654 0
-2 3 654 0
4 -5 655 0
-4 -5 -655 0
4 5 -655 0
-4 5 655 0
7 -8 656 0
-7 -8 -656 0
7 8 -656 0
-7 8 656 0
9 -10 657 0
-9 -10 -657 0
9 10 -657 0
-9 10 657 0
12 -14 658 0
-12 -14 -658 0
12 14 -658 0
-12 14 658 0
16 -17 659 0
-16 -17 -659 0
16 17 -659 0
-16 17 659 0
52 -654 660 0
-52 -654 -660 0
52 654 -660 0
-52 654 660 0
655 -656 661 0
-655 -656 -661 0
655 656 -661 0
-655 656 661 0
657 -658 662 0
-657 -658 -662 0
657 658 -662 0
-657 658 662 0
659 -660 663 0
-659 -660 -663 0
659 660 -663 0
-659 660 663 0
661 -662 664 0
-661 -662 -664 0
661 662 -664 0
-661 662 664 0
663 664 0
-663 -664 0
-2 -4 666 0
2 -4 -666 0
-2 4 -666 0
2 4 666 0
6 -8 667 0
-6 -8 -667 0
6 8 -667 0
-6 8 667 0
13 -14 668 0
-13 -14 -668 0
13 14 -668 0
-13 14 668 0
15 -16 669 0
-15 -16 -669 0
15 16 -669 0
-15 16 669 0
17 -18 670 0
-17 -18 -670 0
17 18 -670 0
-17 18 670 0
20 -53 671 0
-20 -53 -671 0
20 53 -671 0
-20 53 671 0
666 -667 672 0
-666 -667 -672 0
666 667 -672 0
-666 667 672 0
668 -669 673 0
-668 -669 -673 0
668 669 -673 0
-668 669 673 0
670 -671 674 0
-670 -671 -674 0
670 671 -674 0
-670 671 674 0
-672 -673 674 0
672 -673 -674 0
-672 673 -674 0
672 673 674 0
-2 -3 676 0
2 -3 -676 0
-2 3 -676 0
2 3 676 0
4 -6 677 0
-4 -6 -677 0
4 6 -677 0
-4 6 677 0
10 -11 678 0
-10 -11 -678 0
10 11 -678 0
-10 11 678 0
12 -14 679 0
-12 -14 -679 0
12 14 -679 0
-12 14 679 0
16 -18 680 0
-16 -18 -680 0
16 18 -680 0
-16 18 680 0
54 -676 681 0
-54 -676 -681 0
54 676 -681 0
-54 676 681 0
677 -678 682 0
-677 -678 -682 0
677 678 -682 0
-677 678 682 0
679 -680 683 0
-679 -680 -683 0
679 680 -683 0
-679 680 683 0
-681 -682 683 0
681 -682 -683 0
-681 682 -683 0
681 682 683 0
1 -2 685 0
-1 -2 -685 0
1 2 -685 0
-1 2 685 0
3 -7 686 0
-3 -7 -686 0
3 7 -686 0
-3 7 686 0
8 -14 687 0
-8 -14 -687 0
8 14 -687 0
-8 14 687 0
15 -17 688 0
-15 -17 -688 0
15 17 -688 0
-15 17 688 0
19 -20 689 0
-19 -20 -689 0
19 20 -689 0
-19 20 689 0
55 -685 690 0
-55 -685 -690 0
55 685 -690 0
-55 685 690 0
686 -687 691 0
-686 -687 -691 0
686 687 -691 0
-686 687 691 0
688 -689 692 0
-688 -689 -692 0
688 689 -692 0
-688 689 692 0
-690 -691 692 0
690 -691 -692 0
-690 691 -692 0
690 691 692 0
4 -10 694 0
-4 -10 -694 0
4 10 -694 0
-4 10 694 0
11 -12 695 0
-11 -12 -695 0
11 12 -695 0
-11 12 695 0
13 -15 696 0
-13 -15 -696 0
13 15 -696 0
-13 15 696 0
16 -17 697 0
-16 -17 -697 0
16 17 -697 0
-16 17 697 0
18 -20 698 0
-18 -20 -698 0
18 20 -698 0
-18 20 698 0
56 -694 699 0
-56 -694 -699 0
56 694 -699 0
-56 694 699 0
695 -696 700 0
-695 -696 -700 0
695 696 -700 0
-695 696 700 0
697 -698 701 0
-697 -698 -701 0
697 698 -701 0
-697 698 701 0
-699 -700 701 0
699 -700 -701 0
-699 700 -701 0
699 700 701 0
-1 -2 703 0
1 -2 -703 0
-1 2 -703 0
1 2 703 0
6 -7 704 0
-6 -7 -704 0
6 7 -704 0
-6 7 704 0
9 -12 705 0
-9 -12 -705 0
9 12 -705 0
-9 12 705 0
14 -17 706 0
-14 -17 -706 0
14 17 -706 0
-14 17 706 0
18 -19 707 0
-18 -19 -707 0
18 19 -707 0
-18 19 707 0
57 -703 708 0
-57 -703 -708 0
57 703 -708 0
-57 703 708 0
704 -705 709 0
-704 -705 -709 0
704 705 -709 0
-704 705 709 0
706 -707 710 0
-706 -707 -710 0
706 707 -710 0
-706 707 710 0
-708 -709 710 0
708 -709 -710 0
-708 709 -710 0
708 709 710 0
1 -4 712 0
-1 -4 -712 0
1 4 -712 0
-1 4 712 0
5 -7 713 0
-5 -7 -713 0
5 7 -713 0
-5 7 713 0
11 -13 714 0
-11 -13 -714 0
11 13 -714 0
-11 13 714 0
15 -16 715 0
-15 -16 -715 0
15 16 -715 0
-15 16 715 0
17 -18 716 0
-17 -18 -716 0
17 18 -716 0
-17 18 716 0
20 -58 717 0
-20 -58 -717 0
20 58 -717 0
-20 58 717 0
712 -713 718 0
-712 -713 -718 0
712 713 -718 0
-712 713 718 0
714 -715 719 0
-714 -715 -719 0
714 715 -719 0
-714 715 719 0
716 -717 720 0
-716 -717 -720 0
716 717 -720 0
-716 717 720 0
-718 -719 720 0
718 -719 -720 0
-718 719 -720 0
718 719 720 0
-3 -4 722 0
3 -4 -722 0
-3 4 -722 0
3 4 722 0
5 -7 723 0
-5 -7 -723 0
5 7 -723 0
-5 7 723 0
8 -10 724 0
-8 -10 -724 0
8 10 -724 0
-8 10 724 0
12 -13 725 0
-12 -13 -725 0
12 13 -725 0
-12 13 725 0
15 -20 726 0
-15 -20 -726 0
15 20 -726 0
-15 20 726 0
59 -722 727 0
-59 -722 -727 0
59 722 -727 0
-59 722 727 0
723 -724 728 0
-723 -724 -728 0
723 724 -728 0
-723 724 728 0
725 -726 729 0
-725 -726 -729 0
725 726 -729 0
-725 726 729 0
-727 -728 729 0
727 -728 -729 0
-727 728 -729 0
727 728 729 0
4 -8 731 0
-4 -8 -731 0
4 8 -731 0
-4 8 731 0
9 -11 732 0
-9 -11 -732 0
9 11 -732 0
-9 11 732 0
14 -16 733 0
-14 -16 -733 0
14 16 -733 0
-14 16 733 0
17 -18 734 0
-17 -18 -734 0
17 18 -734 0
-17 18 734 0
19 -20 735 0
-19 -20 -735 0
19 20 -735 0
-19 20 735 0
60 -731 736 0
-60 -731 -736 0
60 731 -736 0
-60 731 736 0
732 -733 737 0
-732 -733 -737 0
732 733 -737 0
-732 733 737 0
734 -735 738 0
-734 -735 -738 0
734 735 -738 0
-734 735 738 0
-736 -737 738 0
736 -737 -738 0
-736 737 -738 0
736 737 738 0
